53965
30, 4, 18, 12, 9, 14, 2, 16, 39, 46, 36, 15, 25, 31, 27, 1, 33, 42, 11, 45, 52, 10, 22, 29, 21, 23, 17, 48, 49, 19, 44, 38, 8, 32, 41, 5, 35, 24, 50, 20, 37, 7, 40, 51, 13, 43, 3, 6, 28, 55, 26, 53, 34, 54, 47
